(set-logic HORN)
(declare-fun inv ((_ BitVec 32) (_ BitVec 32) ) Bool)
(assert (forall ((x (_ BitVec 32)) (y (_ BitVec 32))) 
       (=> ( = x #x00000001 ) (inv x y))))
(assert (forall ((x (_ BitVec 32)) (y (_ BitVec 32)) (x! (_ BitVec 32)) (y! (_ BitVec 32))) 
       (=> (and (inv x y) ( let ( ( a!1 ( or ( and ( bvsgt x #x00000000 ) ( bvslt x ( bvudiv y x ) ) ( = x! ( bvmul x x ) ) ) ( = x! ( bvadd x #x00000001 ) ) ) ) ) ( and ( bvsgt y #x00000000 ) ( bvslt x y ) ( = y! y ) a!1 ) )) (inv x! y!))))
(assert (forall ((x (_ BitVec 32)) (y (_ BitVec 32))) 
       (=> (inv x y) ( or ( = y #x00000000 ) ( = x y ) ( and ( bvslt y #x00000000 ) ( bvslt x y ) ) ))))
(check-sat)
